<?xml version = "1.0" standalone="yes"?>
<!-- This file has been generated by DOcplex version 2.23.222  -->
<CPLEXSolution version="1.0">
 <header
   problemName="CVRP"
   objectiveValue="6884.53"
  />
 <variables>
  <variable name="x_0_2" index="1" value="1.00000"/>
  <variable name="x_0_3" index="2" value="1.00000"/>
  <variable name="x_0_8" index="7" value="1.00000"/>
  <variable name="x_0_9" index="8" value="1.00000"/>
  <variable name="x_0_10" index="9" value="1.00000"/>
  <variable name="x_0_11" index="10" value="1.00000"/>
  <variable name="x_0_12" index="11" value="1.00000"/>
  <variable name="x_0_13" index="12" value="1.00000"/>
  <variable name="x_1_0" index="13" value="1.00000"/>
  <variable name="x_2_0" index="26" value="1.00000"/>
  <variable name="x_3_0" index="39" value="1.00000"/>
  <variable name="x_4_0" index="52" value="1.00000"/>
  <variable name="x_5_1" index="66" value="1.00000"/>
  <variable name="x_6_4" index="82" value="1.00000"/>
  <variable name="x_7_0" index="91" value="1.00000"/>
  <variable name="x_8_6" index="110" value="1.00000"/>
  <variable name="x_9_5" index="122" value="1.00000"/>
  <variable name="x_10_0" index="130" value="1.00000"/>
  <variable name="x_11_7" index="150" value="1.00000"/>
  <variable name="x_12_0" index="156" value="1.00000"/>
  <variable name="x_13_0" index="169" value="1.00000"/>
  <variable name="u_1" index="182" value="76.00000"/>
  <variable name="u_2" index="183" value="76.00000"/>
  <variable name="u_3" index="184" value="72.00000"/>
  <variable name="u_4" index="185" value="65.00000"/>
  <variable name="u_5" index="186" value="68.00000"/>
  <variable name="u_6" index="187" value="56.00000"/>
  <variable name="u_7" index="188" value="67.00000"/>
  <variable name="u_8" index="189" value="31.00000"/>
  <variable name="u_9" index="190" value="56.00000"/>
  <variable name="u_10" index="191" value="65.00000"/>
  <variable name="u_11" index="192" value="62.00000"/>
  <variable name="u_12" index="193" value="76.00000"/>
  <variable name="u_13" index="194" value="74.00000"/>
 </variables>
</CPLEXSolution>
